sat
(:added-eqs                   90
 :arith-eq-adapter            40
 :arith-bound-propagations-lp 1
 :arith-conflicts             1
 :arith-diseq                 15
 :arith-fixed-eqs             10
 :arith-lower                 45
 :arith-make-feasible         16
 :arith-max-columns           290
 :arith-max-rows              74
 :arith-nla-propagate-eq      15
 :arith-offset-eqs            1
 :arith-upper                 82
 :binary-propagations         156
 :card2bv-rewrites            6
 :conflicts                   1
 :decisions                   226
 :del-clause                  24
 :elim-unconstrained          40
 :final-checks                1
 :max-memory                  19.89
 :memory                      18.62
 :mk-bool-var                 422
 :mk-clause                   70
 :mk-clause-binary            367
 :num-allocs                  686913
 :num-checks                  1
 :propagations                167
 :rlimit-count                56285
 :time                        0.01
 :total-time                  0.03)
